(set-logic ALL)
(set-option :produce-models true)
(define-fun-rec str.toLower ((x String)) String
  (ite (= x "")
      ""
      (let ((Head (str.at x 0)))
        (str.++ 
          (ite (and (<= 65 (str.to_code Head)) 
                     (<= (str.to_code Head) 90))
               (str.from_code (+ (str.to_code Head) 32))
               Head)
          (str.toLower (str.substr x 1 (- (str.len x) 1)))))))
(declare-fun sym122 () String)
(declare-fun sym400 () String)
(declare-fun sym742 () String)
(declare-fun sym247 () String)
(declare-fun sym514 () String)
(declare-fun sym856 () String)
(declare-fun sym628 () String)

(assert (not (str.contains (str.toLower sym400 )"/setfont" )))
(assert (not (= (str.toLower sym856 )"/restart" )))
(assert (not (= (str.toLower sym742 )"n" )))
(assert (not (= (str.toLower sym742 )"/?" )))
(assert (not (= (str.toLower sym628 )"y" )))
(assert (not (str.contains (str.toLower sym247 )"/setsize" )))
(assert (not (= (str.toLower sym400 )"/quit" )))
(assert (not (= (str.toLower sym400 )"/restart" )))
(assert (not (str.contains (str.toLower sym742 )"/setsize" )))
(assert (not (= (str.toLower sym247 )"/help" )))
(assert (not (str.contains (str.toLower sym514 )"/setsize" )))
(assert (not (= (str.toLower sym514 )"/?" )))
(assert (not (= (str.toLower sym856 )"n" )))
(assert (not (= (str.toLower sym400 )"/help" )))
(assert (not (str.contains (str.toLower sym400 )"/say" )))
(assert (not (= (str.toLower sym514 )"y" )))
(assert (not (= (str.toLower sym400 )"n" )))
(assert (= (str.toLower sym122 )"middle school" ))
(assert (not (str.contains (str.toLower sym742 )"/setfont" )))
(assert (not (str.contains (str.toLower sym400 )"/setsize" )))
(assert (not (= (str.toLower sym742 )"/restart" )))
(assert (not (str.contains (str.toLower sym742 )"/say" )))
(assert (not (= (str.toLower sym514 )"/clear" )))
(assert (not (= (str.toLower sym247 )"/?" )))
(assert (not (= (str.toLower sym628 )"/restart" )))
(assert (not (= (str.toLower sym856 )"y" )))
(assert (not (= (str.toLower sym400 )"y" )))
(assert (not (= (str.toLower sym247 )"y" )))
(assert (not (= (str.toLower sym514 )"n" )))
(assert (not (= (str.toLower sym742 )"/help" )))
(assert (not (= (str.toLower sym742 )"/clear" )))
(assert (not (= (str.toLower sym628 )"/quit" )))
(assert (not (= (str.toLower sym400 )"/clear" )))
(assert (not (= (str.toLower sym628 )"/help" )))
(assert (not (= (str.toLower sym514 )"/help" )))
(assert (not (= (str.toLower sym514 )"/quit" )))
(assert (not (= (str.toLower sym742 )"y" )))
(assert (not (str.contains (str.toLower sym628 )"/say" )))
(assert (not (= (str.toLower sym247 )"/quit" )))
(assert (not (str.contains (str.toLower sym628 )"/setsize" )))
(assert (not (= (str.toLower sym514 )"/restart" )))
(assert (not (str.contains (str.toLower sym247 )"/setfont" )))
(assert (not (= (str.toLower sym122 )"elementary" )))
(assert (not (= (str.toLower sym628 )"n" )))
(assert (not (= (str.toLower sym247 )"/clear" )))
(assert (not (= (str.toLower sym628 )"/?" )))
(assert (not (= (str.toLower sym742 )"/quit" )))
(assert (= (str.toLower sym856 )"/quit" ))
(assert (not (= (str.toLower sym628 )"/clear" )))
(assert (not (str.contains (str.toLower sym514 )"/say" )))
(assert (not (str.contains (str.toLower sym628 )"/setfont" )))
(assert (not (str.contains (str.toLower sym247 )"/say" )))
(assert (not (= (str.toLower sym400 )"/?" )))
(assert (not (str.contains (str.toLower sym514 )"/setfont" )))
(assert (not (= (str.toLower sym247 )"/restart" )))
(assert (not (= (str.toLower sym247 )"n" )))
(check-sat)
(get-model)
(exit)
